Maximize
 0
Subject To
 epc_0!1: -6.878212881609102 y_1!1_2!1 +92.12005770315074 y_1!2_2!1 -57.46276497680167 y_1!3_2!1 -1.5561205541987562 y_1!4_2!1 -43.76061399207294 y_1!1_2!2 +47.790037262783585 y_1!2_2!2 -70.720505156867 y_1!3_2!2 +46.01473682913593 y_1!4_2!2 +86.438060800908 y_1!1_2!3 +90.35380611306746 y_1!2_2!3 -53.11394591586556 y_1!3_2!3 +6.941575912732617 y_1!4_2!3 -57.0400983882557 y_1!1_2!4 +15.490410575673465 y_1!2_2!4 -48.356021018154195 y_1!3_2!4 -95.27537433549193 y_1!4_2!4 + lambda_0!1 - mu_0 = 0
 epc_0!2: +64.64966840608761 y_1!1_2!1 +20.298304112757876 y_1!2_2!1 +74.17283706625358 y_1!3_2!1 +16.881889504443564 y_1!4_2!1 -25.67100362182792 y_1!1_2!2 +66.0856536018855 y_1!2_2!2 +8.230188952135649 y_1!3_2!2 -13.547969082886738 y_1!4_2!2 -5.833802040644372 y_1!1_2!3 -31.92171515422912 y_1!2_2!3 +60.08536536371861 y_1!3_2!3 +59.593666866227835 y_1!4_2!3 -75.72089900549997 y_1!1_2!4 -9.987870859329533 y_1!2_2!4 -87.88631814646652 y_1!3_2!4 -59.69578438382577 y_1!4_2!4 + lambda_0!2 - mu_0 = 0
 epc_0!3: -69.66201417315611 y_1!1_2!1 -31.394742537764017 y_1!2_2!1 -99.34515062543787 y_1!3_2!1 +70.69114818731188 y_1!4_2!1 +92.95805669515576 y_1!1_2!2 -54.24781850253255 y_1!2_2!2 +53.00342989680348 y_1!3_2!2 +60.32595671650341 y_1!4_2!2 -70.17455491900795 y_1!1_2!3 +14.081336481543687 y_1!2_2!3 -75.39437754017763 y_1!3_2!3 +83.7124219629174 y_1!4_2!3 +41.11557865792744 y_1!1_2!4 -52.2958536189716 y_1!2_2!4 +8.828588789967 y_1!3_2!4 +88.06321110406739 y_1!4_2!4 + lambda_0!3 - mu_0 = 0
 epc_0!4: -16.827021828072475 y_1!1_2!1 -25.60464817452737 y_1!2_2!1 +40.60999671727345 y_1!3_2!1 -62.144980278186424 y_1!4_2!1 -55.80439228399232 y_1!1_2!2 -41.740175539839 y_1!2_2!2 +93.0062263304593 y_1!3_2!2 -96.09825718295228 y_1!4_2!2 -30.99132537086568 y_1!1_2!3 +85.5497800002729 y_1!2_2!3 +63.340984480401744 y_1!3_2!3 -19.948671676350443 y_1!4_2!3 +16.570231740414073 y_1!1_2!4 +12.83242467301929 y_1!2_2!4 +75.27115703215978 y_1!3_2!4 -73.3593032943692 y_1!4_2!4 + lambda_0!4 - mu_0 = 0
 dc_0: x_0!1 + x_0!2 + x_0!3 + x_0!4 = 1
 bc_0!1: lambda_0!1 +298.7937283827644 x_0!1 <= 298.7937283827644
 bc_0!2: lambda_0!2 +298.7937283827644 x_0!2 <= 298.7937283827644
 bc_0!3: lambda_0!3 +298.7937283827644 x_0!3 <= 298.7937283827644
 bc_0!4: lambda_0!4 +298.7937283827644 x_0!4 <= 298.7937283827644
 sum_0!1: y_1!1_2!1 - x_1!1 - x_2!1 >= -1
 idk_0!1!1: y_1!1_2!1 - x_1!1 <= 0
 idk_0!1!2: y_1!1_2!1 - x_2!1 <= 0
 sum_0!2: y_1!2_2!1 - x_1!2 - x_2!1 >= -1
 idk_0!2!1: y_1!2_2!1 - x_1!2 <= 0
 idk_0!2!2: y_1!2_2!1 - x_2!1 <= 0
 sum_0!3: y_1!3_2!1 - x_1!3 - x_2!1 >= -1
 idk_0!3!1: y_1!3_2!1 - x_1!3 <= 0
 idk_0!3!2: y_1!3_2!1 - x_2!1 <= 0
 sum_0!4: y_1!4_2!1 - x_1!4 - x_2!1 >= -1
 idk_0!4!1: y_1!4_2!1 - x_1!4 <= 0
 idk_0!4!2: y_1!4_2!1 - x_2!1 <= 0
 sum_0!5: y_1!1_2!2 - x_1!1 - x_2!2 >= -1
 idk_0!5!1: y_1!1_2!2 - x_1!1 <= 0
 idk_0!5!2: y_1!1_2!2 - x_2!2 <= 0
 sum_0!6: y_1!2_2!2 - x_1!2 - x_2!2 >= -1
 idk_0!6!1: y_1!2_2!2 - x_1!2 <= 0
 idk_0!6!2: y_1!2_2!2 - x_2!2 <= 0
 sum_0!7: y_1!3_2!2 - x_1!3 - x_2!2 >= -1
 idk_0!7!1: y_1!3_2!2 - x_1!3 <= 0
 idk_0!7!2: y_1!3_2!2 - x_2!2 <= 0
 sum_0!8: y_1!4_2!2 - x_1!4 - x_2!2 >= -1
 idk_0!8!1: y_1!4_2!2 - x_1!4 <= 0
 idk_0!8!2: y_1!4_2!2 - x_2!2 <= 0
 sum_0!9: y_1!1_2!3 - x_1!1 - x_2!3 >= -1
 idk_0!9!1: y_1!1_2!3 - x_1!1 <= 0
 idk_0!9!2: y_1!1_2!3 - x_2!3 <= 0
 sum_0!10: y_1!2_2!3 - x_1!2 - x_2!3 >= -1
 idk_0!10!1: y_1!2_2!3 - x_1!2 <= 0
 idk_0!10!2: y_1!2_2!3 - x_2!3 <= 0
 sum_0!11: y_1!3_2!3 - x_1!3 - x_2!3 >= -1
 idk_0!11!1: y_1!3_2!3 - x_1!3 <= 0
 idk_0!11!2: y_1!3_2!3 - x_2!3 <= 0
 sum_0!12: y_1!4_2!3 - x_1!4 - x_2!3 >= -1
 idk_0!12!1: y_1!4_2!3 - x_1!4 <= 0
 idk_0!12!2: y_1!4_2!3 - x_2!3 <= 0
 sum_0!13: y_1!1_2!4 - x_1!1 - x_2!4 >= -1
 idk_0!13!1: y_1!1_2!4 - x_1!1 <= 0
 idk_0!13!2: y_1!1_2!4 - x_2!4 <= 0
 sum_0!14: y_1!2_2!4 - x_1!2 - x_2!4 >= -1
 idk_0!14!1: y_1!2_2!4 - x_1!2 <= 0
 idk_0!14!2: y_1!2_2!4 - x_2!4 <= 0
 sum_0!15: y_1!3_2!4 - x_1!3 - x_2!4 >= -1
 idk_0!15!1: y_1!3_2!4 - x_1!3 <= 0
 idk_0!15!2: y_1!3_2!4 - x_2!4 <= 0
 sum_0!16: y_1!4_2!4 - x_1!4 - x_2!4 >= -1
 idk_0!16!1: y_1!4_2!4 - x_1!4 <= 0
 idk_0!16!2: y_1!4_2!4 - x_2!4 <= 0
 epc_1!1: +74.24998921732043 y_0!1_2!1 +41.832054922243884 y_0!2_2!1 -23.095182065989235 y_0!3_2!1 -58.32312945759925 y_0!4_2!1 -22.659608227961314 y_0!1_2!2 +91.33881707287642 y_0!2_2!2 +62.43289663936824 y_0!3_2!2 +73.51483650631266 y_0!4_2!2 -84.42680524195158 y_0!1_2!3 -49.485086107232014 y_0!2_2!3 +32.03109805799056 y_0!3_2!3 +89.644550419919 y_0!4_2!3 +57.404033856778426 y_0!1_2!4 +15.402091769934316 y_0!2_2!4 -21.023516958271756 y_0!3_2!4 +32.828939240971266 y_0!4_2!4 + lambda_1!1 - mu_1 = 0
 epc_1!2: +5.311766235521915 y_0!1_2!1 +71.18022398352645 y_0!2_2!1 -83.75069838336952 y_0!3_2!1 -60.78840498920564 y_0!4_2!1 -74.74022830456607 y_0!1_2!2 -57.98571943468058 y_0!2_2!2 +33.57232734825794 y_0!3_2!2 -82.66399009358823 y_0!4_2!2 -74.80822337969208 y_0!1_2!3 +31.245890645800557 y_0!2_2!3 +19.828749285405294 y_0!3_2!3 +33.90547865687512 y_0!4_2!3 -46.96173813950759 y_0!1_2!4 -47.8475213332396 y_0!2_2!4 -17.271071368905638 y_0!3_2!4 -64.93123534570455 y_0!4_2!4 + lambda_1!2 - mu_1 = 0
 epc_1!3: +62.051749691953006 y_0!1_2!1 +61.67378972625232 y_0!2_2!1 +17.132377070096382 y_0!3_2!1 +81.24891396145676 y_0!4_2!1 +2.114271837984944 y_0!1_2!2 -68.42239769312451 y_0!2_2!2 +2.1537210020538 y_0!3_2!2 -93.57491107969034 y_0!4_2!2 -83.73898480208007 y_0!1_2!3 +75.13598279250624 y_0!2_2!3 +88.39638544184521 y_0!3_2!3 -7.156498350173493 y_0!4_2!3 +47.78894765200107 y_0!1_2!4 +54.589245703929805 y_0!2_2!4 +75.13225477494649 y_0!3_2!4 +55.609968921381096 y_0!4_2!4 + lambda_1!3 - mu_1 = 0
 epc_1!4: -64.49590245881751 y_0!1_2!1 -40.5999847172158 y_0!2_2!1 +90.3337521382285 y_0!3_2!1 -8.126271360677123 y_0!4_2!1 +36.151036596072856 y_0!1_2!2 +51.150385504034745 y_0!2_2!2 -46.83508227635793 y_0!3_2!2 -77.604847104788 y_0!4_2!2 +32.66004696804265 y_0!1_2!3 -66.72480088898267 y_0!2_2!3 +45.32123431181893 y_0!3_2!3 +96.3533394735122 y_0!4_2!3 -33.58515185708467 y_0!1_2!4 +65.90458264362573 y_0!2_2!4 -60.63362778905981 y_0!3_2!4 +56.16802495393952 y_0!4_2!4 + lambda_1!4 - mu_1 = 0
 dc_1: x_1!1 + x_1!2 + x_1!3 + x_1!4 = 1
 bc_1!1: lambda_1!1 +298.7937283827644 x_1!1 <= 298.7937283827644
 bc_1!2: lambda_1!2 +298.7937283827644 x_1!2 <= 298.7937283827644
 bc_1!3: lambda_1!3 +298.7937283827644 x_1!3 <= 298.7937283827644
 bc_1!4: lambda_1!4 +298.7937283827644 x_1!4 <= 298.7937283827644
 sum_1!1: y_0!1_2!1 - x_0!1 - x_2!1 >= -1
 idk_1!1!0: y_0!1_2!1 - x_0!1 <= 0
 idk_1!1!2: y_0!1_2!1 - x_2!1 <= 0
 sum_1!2: y_0!2_2!1 - x_0!2 - x_2!1 >= -1
 idk_1!2!0: y_0!2_2!1 - x_0!2 <= 0
 idk_1!2!2: y_0!2_2!1 - x_2!1 <= 0
 sum_1!3: y_0!3_2!1 - x_0!3 - x_2!1 >= -1
 idk_1!3!0: y_0!3_2!1 - x_0!3 <= 0
 idk_1!3!2: y_0!3_2!1 - x_2!1 <= 0
 sum_1!4: y_0!4_2!1 - x_0!4 - x_2!1 >= -1
 idk_1!4!0: y_0!4_2!1 - x_0!4 <= 0
 idk_1!4!2: y_0!4_2!1 - x_2!1 <= 0
 sum_1!5: y_0!1_2!2 - x_0!1 - x_2!2 >= -1
 idk_1!5!0: y_0!1_2!2 - x_0!1 <= 0
 idk_1!5!2: y_0!1_2!2 - x_2!2 <= 0
 sum_1!6: y_0!2_2!2 - x_0!2 - x_2!2 >= -1
 idk_1!6!0: y_0!2_2!2 - x_0!2 <= 0
 idk_1!6!2: y_0!2_2!2 - x_2!2 <= 0
 sum_1!7: y_0!3_2!2 - x_0!3 - x_2!2 >= -1
 idk_1!7!0: y_0!3_2!2 - x_0!3 <= 0
 idk_1!7!2: y_0!3_2!2 - x_2!2 <= 0
 sum_1!8: y_0!4_2!2 - x_0!4 - x_2!2 >= -1
 idk_1!8!0: y_0!4_2!2 - x_0!4 <= 0
 idk_1!8!2: y_0!4_2!2 - x_2!2 <= 0
 sum_1!9: y_0!1_2!3 - x_0!1 - x_2!3 >= -1
 idk_1!9!0: y_0!1_2!3 - x_0!1 <= 0
 idk_1!9!2: y_0!1_2!3 - x_2!3 <= 0
 sum_1!10: y_0!2_2!3 - x_0!2 - x_2!3 >= -1
 idk_1!10!0: y_0!2_2!3 - x_0!2 <= 0
 idk_1!10!2: y_0!2_2!3 - x_2!3 <= 0
 sum_1!11: y_0!3_2!3 - x_0!3 - x_2!3 >= -1
 idk_1!11!0: y_0!3_2!3 - x_0!3 <= 0
 idk_1!11!2: y_0!3_2!3 - x_2!3 <= 0
 sum_1!12: y_0!4_2!3 - x_0!4 - x_2!3 >= -1
 idk_1!12!0: y_0!4_2!3 - x_0!4 <= 0
 idk_1!12!2: y_0!4_2!3 - x_2!3 <= 0
 sum_1!13: y_0!1_2!4 - x_0!1 - x_2!4 >= -1
 idk_1!13!0: y_0!1_2!4 - x_0!1 <= 0
 idk_1!13!2: y_0!1_2!4 - x_2!4 <= 0
 sum_1!14: y_0!2_2!4 - x_0!2 - x_2!4 >= -1
 idk_1!14!0: y_0!2_2!4 - x_0!2 <= 0
 idk_1!14!2: y_0!2_2!4 - x_2!4 <= 0
 sum_1!15: y_0!3_2!4 - x_0!3 - x_2!4 >= -1
 idk_1!15!0: y_0!3_2!4 - x_0!3 <= 0
 idk_1!15!2: y_0!3_2!4 - x_2!4 <= 0
 sum_1!16: y_0!4_2!4 - x_0!4 - x_2!4 >= -1
 idk_1!16!0: y_0!4_2!4 - x_0!4 <= 0
 idk_1!16!2: y_0!4_2!4 - x_2!4 <= 0
 epc_2!1: +99.45307053634 y_0!1_1!1 +96.52063501894727 y_0!2_1!1 -34.34360944555837 y_0!3_1!1 -9.584875648134258 y_0!4_1!1 -72.64724352922923 y_0!1_1!2 -24.446093584969702 y_0!2_1!2 -22.676942766183288 y_0!3_1!2 +7.49170937818451 y_0!4_1!2 +98.40738397095066 y_0!1_1!3 +99.94900829904324 y_0!2_1!3 +63.46012894702682 y_0!3_1!3 +35.66991942845593 y_0!4_1!3 -87.11548956121752 y_0!1_1!4 +57.496581755316214 y_0!2_1!4 +20.242470159008533 y_0!3_1!4 -91.72135847241913 y_0!4_1!4 + lambda_2!1 - mu_2 = 0
 epc_2!2: -29.01874812494168 y_0!1_1!1 +6.730742128180495 y_0!2_1!1 +7.669621477003474 y_0!3_1!1 +43.20231473186098 y_0!4_1!1 -50.01029768863028 y_0!1_1!2 -34.33488063040346 y_0!2_1!2 -98.84472008372116 y_0!3_1!2 +47.56249126305363 y_0!4_1!2 -14.13071013727351 y_0!1_1!3 -84.6165123701268 y_0!2_1!3 +19.212605545536192 y_0!3_1!3 -70.81789693111939 y_0!4_1!3 -68.83178306376081 y_0!1_1!4 -97.60991249664954 y_0!2_1!4 -72.59995456001487 y_0!3_1!4 -98.82108609035363 y_0!4_1!4 + lambda_2!2 - mu_2 = 0
 epc_2!3: -27.63110136156203 y_0!1_1!1 +45.69490195324005 y_0!2_1!1 -35.79963744634982 y_0!3_1!1 -52.520141661156394 y_0!4_1!1 +19.615183400954578 y_0!1_1!2 +45.429599502004976 y_0!2_1!2 +98.76324749407522 y_0!3_1!2 -32.7566474566284 y_0!4_1!2 -69.58804168068835 y_0!1_1!3 +49.360102126452404 y_0!2_1!3 -86.55023599972165 y_0!3_1!3 +35.121948656060056 y_0!4_1!3 -3.7295270903471334 y_0!1_1!4 -38.017988161067805 y_0!2_1!4 -94.12534893347129 y_0!3_1!4 -98.00700482252506 y_0!4_1!4 + lambda_2!3 - mu_2 = 0
 epc_2!4: +7.405627154317401 y_0!1_1!1 +77.95557029789225 y_0!2_1!1 -74.34963314487257 y_0!3_1!1 -82.76964308708642 y_0!4_1!1 +15.474211161798962 y_0!1_1!2 +87.45695909584666 y_0!2_1!2 +0.29453000671340135 y_0!3_1!2 +78.78543436038751 y_0!4_1!2 +37.97594359237033 y_0!1_1!3 +35.59323325189058 y_0!2_1!3 +62.7702387180575 y_0!3_1!3 -88.70885712961962 y_0!4_1!3 -9.678062497836223 y_0!1_1!4 -78.65159107813209 y_0!2_1!4 -30.113429609553236 y_0!3_1!4 -64.90217062798773 y_0!4_1!4 + lambda_2!4 - mu_2 = 0
 dc_2: x_2!1 + x_2!2 + x_2!3 + x_2!4 = 1
 bc_2!1: lambda_2!1 +298.7937283827644 x_2!1 <= 298.7937283827644
 bc_2!2: lambda_2!2 +298.7937283827644 x_2!2 <= 298.7937283827644
 bc_2!3: lambda_2!3 +298.7937283827644 x_2!3 <= 298.7937283827644
 bc_2!4: lambda_2!4 +298.7937283827644 x_2!4 <= 298.7937283827644
 sum_2!1: y_0!1_1!1 - x_0!1 - x_1!1 >= -1
 idk_2!1!0: y_0!1_1!1 - x_0!1 <= 0
 idk_2!1!1: y_0!1_1!1 - x_1!1 <= 0
 sum_2!2: y_0!2_1!1 - x_0!2 - x_1!1 >= -1
 idk_2!2!0: y_0!2_1!1 - x_0!2 <= 0
 idk_2!2!1: y_0!2_1!1 - x_1!1 <= 0
 sum_2!3: y_0!3_1!1 - x_0!3 - x_1!1 >= -1
 idk_2!3!0: y_0!3_1!1 - x_0!3 <= 0
 idk_2!3!1: y_0!3_1!1 - x_1!1 <= 0
 sum_2!4: y_0!4_1!1 - x_0!4 - x_1!1 >= -1
 idk_2!4!0: y_0!4_1!1 - x_0!4 <= 0
 idk_2!4!1: y_0!4_1!1 - x_1!1 <= 0
 sum_2!5: y_0!1_1!2 - x_0!1 - x_1!2 >= -1
 idk_2!5!0: y_0!1_1!2 - x_0!1 <= 0
 idk_2!5!1: y_0!1_1!2 - x_1!2 <= 0
 sum_2!6: y_0!2_1!2 - x_0!2 - x_1!2 >= -1
 idk_2!6!0: y_0!2_1!2 - x_0!2 <= 0
 idk_2!6!1: y_0!2_1!2 - x_1!2 <= 0
 sum_2!7: y_0!3_1!2 - x_0!3 - x_1!2 >= -1
 idk_2!7!0: y_0!3_1!2 - x_0!3 <= 0
 idk_2!7!1: y_0!3_1!2 - x_1!2 <= 0
 sum_2!8: y_0!4_1!2 - x_0!4 - x_1!2 >= -1
 idk_2!8!0: y_0!4_1!2 - x_0!4 <= 0
 idk_2!8!1: y_0!4_1!2 - x_1!2 <= 0
 sum_2!9: y_0!1_1!3 - x_0!1 - x_1!3 >= -1
 idk_2!9!0: y_0!1_1!3 - x_0!1 <= 0
 idk_2!9!1: y_0!1_1!3 - x_1!3 <= 0
 sum_2!10: y_0!2_1!3 - x_0!2 - x_1!3 >= -1
 idk_2!10!0: y_0!2_1!3 - x_0!2 <= 0
 idk_2!10!1: y_0!2_1!3 - x_1!3 <= 0
 sum_2!11: y_0!3_1!3 - x_0!3 - x_1!3 >= -1
 idk_2!11!0: y_0!3_1!3 - x_0!3 <= 0
 idk_2!11!1: y_0!3_1!3 - x_1!3 <= 0
 sum_2!12: y_0!4_1!3 - x_0!4 - x_1!3 >= -1
 idk_2!12!0: y_0!4_1!3 - x_0!4 <= 0
 idk_2!12!1: y_0!4_1!3 - x_1!3 <= 0
 sum_2!13: y_0!1_1!4 - x_0!1 - x_1!4 >= -1
 idk_2!13!0: y_0!1_1!4 - x_0!1 <= 0
 idk_2!13!1: y_0!1_1!4 - x_1!4 <= 0
 sum_2!14: y_0!2_1!4 - x_0!2 - x_1!4 >= -1
 idk_2!14!0: y_0!2_1!4 - x_0!2 <= 0
 idk_2!14!1: y_0!2_1!4 - x_1!4 <= 0
 sum_2!15: y_0!3_1!4 - x_0!3 - x_1!4 >= -1
 idk_2!15!0: y_0!3_1!4 - x_0!3 <= 0
 idk_2!15!1: y_0!3_1!4 - x_1!4 <= 0
 sum_2!16: y_0!4_1!4 - x_0!4 - x_1!4 >= -1
 idk_2!16!0: y_0!4_1!4 - x_0!4 <= 0
 idk_2!16!1: y_0!4_1!4 - x_1!4 <= 0
Bounds
 mu_0 free
 mu_1 free
 mu_2 free
Binary
 x_0!1 x_0!2 x_0!3 x_0!4 x_1!1 x_1!2 x_1!3 x_1!4 x_2!1 x_2!2 x_2!3 x_2!4
End
